Minimize
  - 15 y_0 - 22 y_1 - 12 y_2 - 25 y_3 - 27 y_5 - 23 y_6 - 15 y_7 - 25 y_8
   - 23 y_9 - 18 y_10 - 13 y_11 - 19 y_12 - 8 y_13 - 14 y_14 - 22 y_15
   - 17 y_16 - 10 y_17 - 21 y_18 - 7 y_19 - 23 y_20 - 20 y_21 - 19 y_22
   - 20 y_23 - 19 y_24 - 23 y_25 - 12 y_26 - 17 y_27 - 22 y_28 - 20 y_29
   - 17 y_30 - 11 y_31 - 25 y_32 - 21 y_33 - 7 y_34 - 13 y_35 - 24 y_36
   - 18 y_37 - 19 y_38 - 14 y_39 - 22 y_40 - 26 y_41 - 29 y_42 - 4 y_43
   - 5 y_44 - 10 y_45 - 28 y_46 - 20 y_47 - 7 y_48 - 6 y_49 + 60 x_0_4
   + 52 x_0_5 + 45 x_0_6 + 52 x_0_10 + 13 x_0_11 + 64 x_0_12 + 29 x_0_13
   + 37 x_0_15 + 17 x_0_16 + 38 x_0_21 + 56 x_0_25 + 61 x_0_30 + 41 x_0_33
   + 44 x_0_34 + 39 x_0_35 + 71 x_0_38 + 47 x_0_41 + 44 x_0_43 + 42 x_0_44
   + 28 x_0_45 + 38 x_0_49 + 66 x_1_7 + 77 x_1_9 + 70 x_1_10 + 82 x_1_12
   + 59 x_1_13 + 45 x_1_14 + 21 x_1_15 + 53 x_1_17 + 68 x_1_18 + 72 x_1_19
   + 66 x_1_20 + 73 x_1_23 + 44 x_1_26 + 59 x_1_27 + 33 x_1_29 + 82 x_1_30
   + 55 x_1_35 + 26 x_1_37 + 32 x_1_41 + 73 x_1_44 + 58 x_1_45 + 49 x_1_46
   + 39 x_1_47 + 65 x_1_48 + 69 x_1_49 + 50 x_2_4 + 66 x_2_5 + 80 x_2_6
   + 14 x_2_7 + 42 x_2_9 + 24 x_2_10 + 27 x_2_13 + 31 x_2_16 + 36 x_2_18
   + 22 x_2_19 + 44 x_2_20 + 34 x_2_21 + 43 x_2_22 + 34 x_2_23 + 41 x_2_25
   + 20 x_2_27 + 28 x_2_30 + 54 x_2_32 + 75 x_2_33 + 35 x_2_37 + 78 x_2_40
   + 61 x_2_41 + 73 x_2_42 + 34 x_2_43 + 64 x_2_46 + 42 x_2_48 + 99 x_3_4
   + 83 x_3_6 + 44 x_3_7 + 64 x_3_11 + 47 x_3_12 + 70 x_3_13 + 79 x_3_14
   + 70 x_3_15 + 62 x_3_17 + 72 x_3_19 + 21 x_3_20 + 35 x_3_23 + 21 x_3_25
   + 72 x_3_26 + 54 x_3_30 + 56 x_3_31 + 90 x_3_35 + 59 x_3_38 + 77 x_3_39
   + 83 x_3_40 + 24 x_3_41 + 26 x_3_42 + 78 x_3_44 + 60 x_3_45 + 74 x_3_49
   + 61 x_4_7 + 100 x_4_8 + 77 x_4_12 + 70 x_4_16 + 85 x_4_18 + 76 x_4_22
   + 82 x_4_23 + 74 x_4_24 + 90 x_4_25 + 44 x_4_31 + 100 x_4_32 + 54 x_4_35
   + 72 x_4_37 + 54 x_4_39 + 87 x_4_40 + 17 x_4_43 + 80 x_4_47 + 69 x_5_6
   + 64 x_5_7 + 30 x_5_8 + 63 x_5_10 + 78 x_5_13 + 76 x_5_14 + 70 x_5_17
   + 37 x_5_22 + 60 x_5_23 + 72 x_5_26 + 54 x_5_27 + 77 x_5_30 + 70 x_5_31
   + 16 x_5_32 + 70 x_5_33 + 29 x_5_36 + 38 x_5_37 + 83 x_5_38 + 5 x_5_41
   + 89 x_5_44 + 71 x_5_45 + 85 x_5_49 + 39 x_6_8 + 40 x_6_11 + 108 x_6_12
   + 66 x_6_13 + 35 x_6_14 + 13 x_6_15 + 57 x_6_16 + 98 x_6_18 + 83 x_6_19
   + 98 x_6_20 + 95 x_6_25 + 77 x_6_31 + 75 x_6_32 + 7 x_6_33 + 52 x_6_37
   + 116 x_6_38 + 36 x_6_39 + 66 x_6_41 + 79 x_6_42 + 79 x_6_43 + 29 x_7_9
   + 10 x_7_10 + 53 x_7_11 + 79 x_7_15 + 35 x_7_16 + 33 x_7_20 + 30 x_7_25
   + 50 x_7_32 + 85 x_7_33 + 34 x_7_34 + 76 x_7_35 + 40 x_7_36 + 40 x_7_37
   + 88 x_7_40 + 42 x_7_44 + 58 x_7_46 + 86 x_7_47 + 56 x_7_48 + 40 x_7_49
   + 75 x_8_10 + 47 x_8_11 + 87 x_8_12 + 69 x_8_13 + 55 x_8_14 + 27 x_8_15
   + 38 x_8_16 + 63 x_8_17 + 72 x_8_18 + 81 x_8_19 + 49 x_8_21 + 26 x_8_22
   + 66 x_8_25 + 64 x_8_27 + 88 x_8_30 + 69 x_8_31 + 39 x_8_32 + 42 x_8_33
   + 83 x_8_34 + 33 x_8_37 + 54 x_8_39 + 41 x_8_40 + 83 x_8_44 + 67 x_8_45
   + 75 x_8_48 + 79 x_8_49 + 19 x_9_10 + 76 x_9_11 + 17 x_9_12 + 91 x_9_14
   + 95 x_9_15 + 50 x_9_16 + 14 x_9_20 + 31 x_9_21 + 19 x_9_28 + 44 x_9_29
   + 27 x_9_30 + 104 x_9_33 + 63 x_9_34 + 31 x_9_36 + 55 x_9_37 + 27 x_9_38
   + 58 x_9_41 + 60 x_9_42 + 72 x_9_44 + 84 x_9_48 + 69 x_9_49 + 12 x_10_12
   + 86 x_10_15 + 40 x_10_16 + 15 x_10_18 + 43 x_10_19 + 54 x_10_22
   + 28 x_10_24 + 23 x_10_25 + 11 x_10_27 + 22 x_10_28 + 14 x_10_30
   + 48 x_10_32 + 44 x_10_34 + 36 x_10_36 + 45 x_10_37 + 21 x_10_38
   + 74 x_10_39 + 56 x_10_43 + 93 x_10_47 + 66 x_10_48 + 50 x_10_49
   + 36 x_11_15 + 68 x_11_18 + 42 x_11_19 + 69 x_11_23 + 68 x_11_25
   + 8 x_11_26 + 52 x_11_27 + 62 x_11_28 + 37 x_11_31 + 44 x_11_34
   + 26 x_11_35 + 38 x_11_40 + 40 x_11_43 + 31 x_11_45 + 72 x_11_46
   + 34 x_11_47 + 28 x_11_48 + 36 x_11_49 + 61 x_12_13 + 88 x_12_14
   + 52 x_12_16 + 51 x_12_19 + 12 x_12_23 + 27 x_12_25 + 78 x_12_26
   + 29 x_12_28 + 11 x_12_30 + 40 x_12_31 + 104 x_12_33 + 51 x_12_34
   + 96 x_12_35 + 43 x_12_36 + 107 x_12_40 + 68 x_12_41 + 73 x_12_42
   + 60 x_12_44 + 48 x_12_45 + 61 x_12_46 + 105 x_12_47 + 75 x_12_48
   + 58 x_12_49 + 33 x_13_14 + 62 x_13_18 + 69 x_13_20 + 53 x_13_21
   + 61 x_13_23 + 45 x_13_24 + 65 x_13_25 + 24 x_13_26 + 45 x_13_27
   + 21 x_13_31 + 19 x_13_34 + 67 x_13_36 + 64 x_13_38 + 63 x_13_40
   + 72 x_13_41 + 16 x_13_43 + 14 x_13_44 + 13 x_13_45 + 15 x_13_48
   + 36 x_14_15 + 45 x_14_16 + 35 x_14_17 + 83 x_14_18 + 86 x_14_20
   + 84 x_14_23 + 58 x_14_24 + 74 x_14_32 + 11 x_14_35 + 93 x_14_38
   + 2 x_14_39 + 87 x_14_42 + 85 x_14_46 + 28 x_14_48 + 43 x_14_49
   + 45 x_15_16 + 58 x_15_17 + 83 x_15_25 + 74 x_15_27 + 77 x_15_28
   + 52 x_15_29 + 69 x_15_31 + 15 x_15_33 + 79 x_15_34 + 43 x_15_35
   + 36 x_15_39 + 70 x_15_46 + 62 x_15_48 + 41 x_16_18 + 43 x_16_20
   + 14 x_16_22 + 40 x_16_25 + 38 x_16_26 + 33 x_16_28 + 51 x_16_30
   + 32 x_16_32 + 48 x_16_34 + 56 x_16_35 + 5 x_16_37 + 43 x_16_39
   + 56 x_16_40 + 48 x_16_42 + 53 x_16_43 + 32 x_16_45 + 56 x_16_47
   + 50 x_16_48 + 55 x_17_18 + 19 x_17_19 + 61 x_17_20 + 45 x_17_21
   + 38 x_17_22 + 58 x_17_25 + 38 x_17_27 + 58 x_17_33 + 21 x_17_34
   + 42 x_17_35 + 59 x_17_36 + 59 x_17_38 + 8 x_17_45 + 73 x_17_46
   + 57 x_18_19 + 23 x_18_21 + 54 x_18_22 + 7 x_18_23 + 9 x_18_25
   + 17 x_18_27 + 35 x_18_29 + 43 x_18_31 + 38 x_18_32 + 25 x_18_36
   + 46 x_18_37 + 30 x_18_38 + 70 x_18_43 + 66 x_18_44 + 50 x_18_45
   + 43 x_18_46 + 97 x_18_47 + 63 x_18_49 + 55 x_19_21 + 42 x_19_27
   + 58 x_19_28 + 57 x_19_29 + 42 x_19_30 + 74 x_19_32 + 76 x_19_33
   + 68 x_19_36 + 49 x_19_39 + 13 x_19_43 + 14 x_19_45 + 85 x_19_46
   + 22 x_20_21 + 53 x_20_22 + 3 x_20_25 + 78 x_20_26 + 96 x_20_33
   + 66 x_20_34 + 97 x_20_35 + 18 x_20_36 + 47 x_20_37 + 39 x_20_38
   + 45 x_20_41 + 46 x_20_42 + 78 x_20_43 + 70 x_20_49 + 32 x_21_22
   + 28 x_21_23 + 19 x_21_25 + 58 x_21_26 + 19 x_21_27 + 12 x_21_29
   + 42 x_21_30 + 21 x_21_32 + 56 x_21_34 + 77 x_21_35 + 14 x_21_36
   + 49 x_21_38 + 75 x_21_40 + 31 x_21_41 + 65 x_21_43 + 67 x_21_48
   + 58 x_21_49 + 58 x_22_23 + 51 x_22_25 + 36 x_22_26 + 45 x_22_28
   + 20 x_22_29 + 58 x_22_34 + 51 x_22_35 + 40 x_22_36 + 75 x_22_38
   + 38 x_22_39 + 44 x_22_40 + 31 x_22_41 + 60 x_22_43 + 46 x_22_46
   + 45 x_22_47 + 53 x_22_48 + 53 x_22_49 + 17 x_23_28 + 40 x_23_29
   + 44 x_23_32 + 98 x_23_33 + 55 x_23_34 + 50 x_23_37 + 23 x_23_38
   + 100 x_23_40 + 48 x_23_45 + 49 x_23_46 + 76 x_23_48 + 61 x_23_49
   + 25 x_24_25 + 50 x_24_26 + 11 x_24_29 + 41 x_24_30 + 68 x_24_33
   + 22 x_24_36 + 19 x_24_37 + 56 x_24_39 + 70 x_24_40 + 45 x_24_42
   + 57 x_24_43 + 37 x_24_46 + 59 x_24_48 + 50 x_24_49 + 75 x_25_26
   + 21 x_25_27 + 6 x_25_28 + 31 x_25_29 + 47 x_25_31 + 31 x_25_32
   + 93 x_25_33 + 63 x_25_34 + 94 x_25_35 + 44 x_25_41 + 71 x_25_44
   + 95 x_25_47 + 67 x_25_49 + 40 x_26_31 + 35 x_26_33 + 43 x_26_34
   + 19 x_26_35 + 71 x_26_36 + 36 x_26_37 + 40 x_26_40 + 37 x_26_43
   + 37 x_26_44 + 34 x_26_47 + 22 x_26_48 + 34 x_26_49 + 17 x_27_28
   + 28 x_27_29 + 39 x_27_32 + 43 x_27_34 + 77 x_27_35 + 29 x_27_36
   + 34 x_27_37 + 84 x_27_40 + 49 x_27_41 + 83 x_27_47 + 60 x_27_48
   + 47 x_27_49 + 25 x_28_29 + 27 x_28_32 + 87 x_28_33 + 59 x_28_34
   + 15 x_28_36 + 45 x_28_42 + 70 x_28_43 + 48 x_28_45 + 75 x_28_48
   + 63 x_28_49 + 52 x_29_30 + 19 x_29_32 + 63 x_29_33 + 69 x_29_35
   + 15 x_29_37 + 36 x_29_42 + 30 x_29_46 + 65 x_29_47 + 63 x_29_48
   + 61 x_30_32 + 90 x_30_35 + 57 x_30_37 + 104 x_30_40 + 41 x_30_45
   + 68 x_30_46 + 49 x_30_49 + 72 x_31_33 + 44 x_31_38 + 48 x_31_39
   + 64 x_31_41 + 23 x_31_44 + 8 x_31_45 + 69 x_31_46 + 86 x_32_35
   + 72 x_32_39 + 75 x_32_40 + 13 x_32_41 + 83 x_32_43 + 80 x_32_44
   + 61 x_32_45 + 78 x_32_47 + 76 x_32_49 + 78 x_33_34 + 32 x_33_35
   + 49 x_33_37 + 112 x_33_38 + 29 x_33_39 + 81 x_33_42 + 72 x_33_44
   + 65 x_33_45 + 84 x_33_46 + 56 x_33_48 + 57 x_34_35 + 52 x_34_37
   + 51 x_34_39 + 81 x_34_41 + 14 x_34_43 + 10 x_34_44 + 10 x_34_49
   + 54 x_35_37 + 13 x_35_39 + 98 x_35_42 + 47 x_35_43 + 48 x_35_44
   + 49 x_35_45 + 28 x_35_47 + 29 x_35_48 + 76 x_36_39 + 27 x_36_41
   + 79 x_36_43 + 75 x_36_44 + 57 x_36_45 + 85 x_36_47 + 80 x_36_48
   + 32 x_37_41 + 47 x_37_42 + 53 x_37_44 + 44 x_37_46 + 51 x_37_48
   + 91 x_38_39 + 85 x_38_42 + 52 x_38_45 + 73 x_38_46 + 112 x_38_47
   + 78 x_38_48 + 33 x_39_40 + 44 x_39_43 + 42 x_39_49 + 66 x_40_41
   + 84 x_40_46 + 9 x_40_47 + 74 x_40_49 + 80 x_41_49 + 101 x_42_43
   + 79 x_42_45 + 13 x_42_46 + 85 x_42_47 + 98 x_42_48 + 4 x_43_44
   + 22 x_43_45 + 18 x_43_48 + 70 x_44_47 + 20 x_44_48 + 72 x_45_46
   + 15 x_45_49 + 93 x_46_48 + 87 x_46_49 + 68 x_47_49 + 19 x_48_49
   + 857 Constant
Subject To
 c_0: y_24 = 1
 c_1_0: y_0 >= 1
 c_1_1: y_1 >= 1
 c_1_2: y_2 >= 1
 c_1_3: y_3 >= 1
 c_1_4: y_4 >= 1
 c_1_5: y_5 >= 1
 c_1_6: y_6 >= 1
 c_1_7: y_7 >= 1
 c_1_8: y_8 >= 1
 c_1_9: y_9 >= 1
 c_1_10: y_10 >= 1
 c_1_11: y_11 >= 1
 c_1_12: y_12 >= 1
 c_1_13: y_13 >= 1
 c_1_14: y_14 >= 1
 c_1_15: y_15 >= 1
 c_1_16: y_16 >= 1
 c_1_17: y_17 >= 1
 c_1_18: y_18 >= 1
 c_1_19: y_19 >= 1
 c_1_20: y_20 >= 1
 c_1_21: y_21 >= 1
 c_1_22: y_22 >= 1
 c_1_23: y_23 >= 1
 c_1_24: y_24 >= 1
 c_1_25: y_25 >= 1
 c_1_26: y_26 >= 1
 c_1_27: y_27 >= 1
 c_1_28: y_28 >= 1
 c_1_29: y_29 >= 1
 c_1_30: y_30 >= 1
 c_1_31: y_31 >= 1
 c_1_32: y_32 >= 1
 c_1_33: y_33 >= 1
 c_1_34: y_34 >= 1
 c_1_35: y_35 >= 1
 c_1_36: y_36 >= 1
 c_1_37: y_37 >= 1
 c_1_38: y_38 >= 1
 c_1_39: y_39 >= 1
 c_1_40: y_40 >= 1
 c_1_41: y_41 >= 1
 c_1_42: y_42 >= 1
 c_1_43: y_43 >= 1
 c_1_44: y_44 >= 1
 c_1_45: y_45 >= 1
 c_1_46: y_46 >= 1
 c_1_47: y_47 >= 1
 c_1_48: y_48 >= 1
 c_1_49: y_49 >= 1
 c_2_0: - 2 y_0 + x_0_4 + x_0_5 + x_0_6 + x_0_10 + x_0_11 + x_0_12 + x_0_13
   + x_0_15 + x_0_16 + x_0_21 + x_0_25 + x_0_30 + x_0_33 + x_0_34 + x_0_35
   + x_0_38 + x_0_41 + x_0_43 + x_0_44 + x_0_45 + x_0_49 = 0
 c_2_1: - 2 y_1 + x_1_7 + x_1_9 + x_1_10 + x_1_12 + x_1_13 + x_1_14
   + x_1_15 + x_1_17 + x_1_18 + x_1_19 + x_1_20 + x_1_23 + x_1_26 + x_1_27
   + x_1_29 + x_1_30 + x_1_35 + x_1_37 + x_1_41 + x_1_44 + x_1_45 + x_1_46
   + x_1_47 + x_1_48 + x_1_49 = 0
 c_2_2: - 2 y_2 + x_2_4 + x_2_5 + x_2_6 + x_2_7 + x_2_9 + x_2_10 + x_2_13
   + x_2_16 + x_2_18 + x_2_19 + x_2_20 + x_2_21 + x_2_22 + x_2_23 + x_2_25
   + x_2_27 + x_2_30 + x_2_32 + x_2_33 + x_2_37 + x_2_40 + x_2_41 + x_2_42
   + x_2_43 + x_2_46 + x_2_48 = 0
 c_2_3: - 2 y_3 + x_3_4 + x_3_6 + x_3_7 + x_3_11 + x_3_12 + x_3_13 + x_3_14
   + x_3_15 + x_3_17 + x_3_19 + x_3_20 + x_3_23 + x_3_25 + x_3_26 + x_3_30
   + x_3_31 + x_3_35 + x_3_38 + x_3_39 + x_3_40 + x_3_41 + x_3_42 + x_3_44
   + x_3_45 + x_3_49 = 0
 c_2_4: - 2 y_4 + x_0_4 + x_2_4 + x_3_4 + x_4_7 + x_4_8 + x_4_12 + x_4_16
   + x_4_18 + x_4_22 + x_4_23 + x_4_24 + x_4_25 + x_4_31 + x_4_32 + x_4_35
   + x_4_37 + x_4_39 + x_4_40 + x_4_43 + x_4_47 = 0
 c_2_5: - 2 y_5 + x_0_5 + x_2_5 + x_5_6 + x_5_7 + x_5_8 + x_5_10 + x_5_13
   + x_5_14 + x_5_17 + x_5_22 + x_5_23 + x_5_26 + x_5_27 + x_5_30 + x_5_31
   + x_5_32 + x_5_33 + x_5_36 + x_5_37 + x_5_38 + x_5_41 + x_5_44 + x_5_45
   + x_5_49 = 0
 c_2_6: - 2 y_6 + x_0_6 + x_2_6 + x_3_6 + x_5_6 + x_6_8 + x_6_11 + x_6_12
   + x_6_13 + x_6_14 + x_6_15 + x_6_16 + x_6_18 + x_6_19 + x_6_20 + x_6_25
   + x_6_31 + x_6_32 + x_6_33 + x_6_37 + x_6_38 + x_6_39 + x_6_41 + x_6_42
   + x_6_43 = 0
 c_2_7: - 2 y_7 + x_1_7 + x_2_7 + x_3_7 + x_4_7 + x_5_7 + x_7_9 + x_7_10
   + x_7_11 + x_7_15 + x_7_16 + x_7_20 + x_7_25 + x_7_32 + x_7_33 + x_7_34
   + x_7_35 + x_7_36 + x_7_37 + x_7_40 + x_7_44 + x_7_46 + x_7_47 + x_7_48
   + x_7_49 = 0
 c_2_8: - 2 y_8 + x_4_8 + x_5_8 + x_6_8 + x_8_10 + x_8_11 + x_8_12 + x_8_13
   + x_8_14 + x_8_15 + x_8_16 + x_8_17 + x_8_18 + x_8_19 + x_8_21 + x_8_22
   + x_8_25 + x_8_27 + x_8_30 + x_8_31 + x_8_32 + x_8_33 + x_8_34 + x_8_37
   + x_8_39 + x_8_40 + x_8_44 + x_8_45 + x_8_48 + x_8_49 = 0
 c_2_9: - 2 y_9 + x_1_9 + x_2_9 + x_7_9 + x_9_10 + x_9_11 + x_9_12 + x_9_14
   + x_9_15 + x_9_16 + x_9_20 + x_9_21 + x_9_28 + x_9_29 + x_9_30 + x_9_33
   + x_9_34 + x_9_36 + x_9_37 + x_9_38 + x_9_41 + x_9_42 + x_9_44 + x_9_48
   + x_9_49 = 0
 c_2_10: - 2 y_10 + x_0_10 + x_1_10 + x_2_10 + x_5_10 + x_7_10 + x_8_10
   + x_9_10 + x_10_12 + x_10_15 + x_10_16 + x_10_18 + x_10_19 + x_10_22
   + x_10_24 + x_10_25 + x_10_27 + x_10_28 + x_10_30 + x_10_32 + x_10_34
   + x_10_36 + x_10_37 + x_10_38 + x_10_39 + x_10_43 + x_10_47 + x_10_48
   + x_10_49 = 0
 c_2_11: - 2 y_11 + x_0_11 + x_3_11 + x_6_11 + x_7_11 + x_8_11 + x_9_11
   + x_11_15 + x_11_18 + x_11_19 + x_11_23 + x_11_25 + x_11_26 + x_11_27
   + x_11_28 + x_11_31 + x_11_34 + x_11_35 + x_11_40 + x_11_43 + x_11_45
   + x_11_46 + x_11_47 + x_11_48 + x_11_49 = 0
 c_2_12: - 2 y_12 + x_0_12 + x_1_12 + x_3_12 + x_4_12 + x_6_12 + x_8_12
   + x_9_12 + x_10_12 + x_12_13 + x_12_14 + x_12_16 + x_12_19 + x_12_23
   + x_12_25 + x_12_26 + x_12_28 + x_12_30 + x_12_31 + x_12_33 + x_12_34
   + x_12_35 + x_12_36 + x_12_40 + x_12_41 + x_12_42 + x_12_44 + x_12_45
   + x_12_46 + x_12_47 + x_12_48 + x_12_49 = 0
 c_2_13: - 2 y_13 + x_0_13 + x_1_13 + x_2_13 + x_3_13 + x_5_13 + x_6_13
   + x_8_13 + x_12_13 + x_13_14 + x_13_18 + x_13_20 + x_13_21 + x_13_23
   + x_13_24 + x_13_25 + x_13_26 + x_13_27 + x_13_31 + x_13_34 + x_13_36
   + x_13_38 + x_13_40 + x_13_41 + x_13_43 + x_13_44 + x_13_45 + x_13_48
   = 0
 c_2_14: - 2 y_14 + x_1_14 + x_3_14 + x_5_14 + x_6_14 + x_8_14 + x_9_14
   + x_12_14 + x_13_14 + x_14_15 + x_14_16 + x_14_17 + x_14_18 + x_14_20
   + x_14_23 + x_14_24 + x_14_32 + x_14_35 + x_14_38 + x_14_39 + x_14_42
   + x_14_46 + x_14_48 + x_14_49 = 0
 c_2_15: - 2 y_15 + x_0_15 + x_1_15 + x_3_15 + x_6_15 + x_7_15 + x_8_15
   + x_9_15 + x_10_15 + x_11_15 + x_14_15 + x_15_16 + x_15_17 + x_15_25
   + x_15_27 + x_15_28 + x_15_29 + x_15_31 + x_15_33 + x_15_34 + x_15_35
   + x_15_39 + x_15_46 + x_15_48 = 0
 c_2_16: - 2 y_16 + x_0_16 + x_2_16 + x_4_16 + x_6_16 + x_7_16 + x_8_16
   + x_9_16 + x_10_16 + x_12_16 + x_14_16 + x_15_16 + x_16_18 + x_16_20
   + x_16_22 + x_16_25 + x_16_26 + x_16_28 + x_16_30 + x_16_32 + x_16_34
   + x_16_35 + x_16_37 + x_16_39 + x_16_40 + x_16_42 + x_16_43 + x_16_45
   + x_16_47 + x_16_48 = 0
 c_2_17: - 2 y_17 + x_1_17 + x_3_17 + x_5_17 + x_8_17 + x_14_17 + x_15_17
   + x_17_18 + x_17_19 + x_17_20 + x_17_21 + x_17_22 + x_17_25 + x_17_27
   + x_17_33 + x_17_34 + x_17_35 + x_17_36 + x_17_38 + x_17_45 + x_17_46
   = 0
 c_2_18: - 2 y_18 + x_1_18 + x_2_18 + x_4_18 + x_6_18 + x_8_18 + x_10_18
   + x_11_18 + x_13_18 + x_14_18 + x_16_18 + x_17_18 + x_18_19 + x_18_21
   + x_18_22 + x_18_23 + x_18_25 + x_18_27 + x_18_29 + x_18_31 + x_18_32
   + x_18_36 + x_18_37 + x_18_38 + x_18_43 + x_18_44 + x_18_45 + x_18_46
   + x_18_47 + x_18_49 = 0
 c_2_19: - 2 y_19 + x_1_19 + x_2_19 + x_3_19 + x_6_19 + x_8_19 + x_10_19
   + x_11_19 + x_12_19 + x_17_19 + x_18_19 + x_19_21 + x_19_27 + x_19_28
   + x_19_29 + x_19_30 + x_19_32 + x_19_33 + x_19_36 + x_19_39 + x_19_43
   + x_19_45 + x_19_46 = 0
 c_2_20: - 2 y_20 + x_1_20 + x_2_20 + x_3_20 + x_6_20 + x_7_20 + x_9_20
   + x_13_20 + x_14_20 + x_16_20 + x_17_20 + x_20_21 + x_20_22 + x_20_25
   + x_20_26 + x_20_33 + x_20_34 + x_20_35 + x_20_36 + x_20_37 + x_20_38
   + x_20_41 + x_20_42 + x_20_43 + x_20_49 = 0
 c_2_21: - 2 y_21 + x_0_21 + x_2_21 + x_8_21 + x_9_21 + x_13_21 + x_17_21
   + x_18_21 + x_19_21 + x_20_21 + x_21_22 + x_21_23 + x_21_25 + x_21_26
   + x_21_27 + x_21_29 + x_21_30 + x_21_32 + x_21_34 + x_21_35 + x_21_36
   + x_21_38 + x_21_40 + x_21_41 + x_21_43 + x_21_48 + x_21_49 = 0
 c_2_22: - 2 y_22 + x_2_22 + x_4_22 + x_5_22 + x_8_22 + x_10_22 + x_16_22
   + x_17_22 + x_18_22 + x_20_22 + x_21_22 + x_22_23 + x_22_25 + x_22_26
   + x_22_28 + x_22_29 + x_22_34 + x_22_35 + x_22_36 + x_22_38 + x_22_39
   + x_22_40 + x_22_41 + x_22_43 + x_22_46 + x_22_47 + x_22_48 + x_22_49
   = 0
 c_2_23: - 2 y_23 + x_1_23 + x_2_23 + x_3_23 + x_4_23 + x_5_23 + x_11_23
   + x_12_23 + x_13_23 + x_14_23 + x_18_23 + x_21_23 + x_22_23 + x_23_28
   + x_23_29 + x_23_32 + x_23_33 + x_23_34 + x_23_37 + x_23_38 + x_23_40
   + x_23_45 + x_23_46 + x_23_48 + x_23_49 = 0
 c_2_24: - 2 y_24 + x_4_24 + x_10_24 + x_13_24 + x_14_24 + x_24_25
   + x_24_26 + x_24_29 + x_24_30 + x_24_33 + x_24_36 + x_24_37 + x_24_39
   + x_24_40 + x_24_42 + x_24_43 + x_24_46 + x_24_48 + x_24_49 = 0
 c_2_25: - 2 y_25 + x_0_25 + x_2_25 + x_3_25 + x_4_25 + x_6_25 + x_7_25
   + x_8_25 + x_10_25 + x_11_25 + x_12_25 + x_13_25 + x_15_25 + x_16_25
   + x_17_25 + x_18_25 + x_20_25 + x_21_25 + x_22_25 + x_24_25 + x_25_26
   + x_25_27 + x_25_28 + x_25_29 + x_25_31 + x_25_32 + x_25_33 + x_25_34
   + x_25_35 + x_25_41 + x_25_44 + x_25_47 + x_25_49 = 0
 c_2_26: - 2 y_26 + x_1_26 + x_3_26 + x_5_26 + x_11_26 + x_12_26 + x_13_26
   + x_16_26 + x_20_26 + x_21_26 + x_22_26 + x_24_26 + x_25_26 + x_26_31
   + x_26_33 + x_26_34 + x_26_35 + x_26_36 + x_26_37 + x_26_40 + x_26_43
   + x_26_44 + x_26_47 + x_26_48 + x_26_49 = 0
 c_2_27: - 2 y_27 + x_1_27 + x_2_27 + x_5_27 + x_8_27 + x_10_27 + x_11_27
   + x_13_27 + x_15_27 + x_17_27 + x_18_27 + x_19_27 + x_21_27 + x_25_27
   + x_27_28 + x_27_29 + x_27_32 + x_27_34 + x_27_35 + x_27_36 + x_27_37
   + x_27_40 + x_27_41 + x_27_47 + x_27_48 + x_27_49 = 0
 c_2_28: - 2 y_28 + x_9_28 + x_10_28 + x_11_28 + x_12_28 + x_15_28
   + x_16_28 + x_19_28 + x_22_28 + x_23_28 + x_25_28 + x_27_28 + x_28_29
   + x_28_32 + x_28_33 + x_28_34 + x_28_36 + x_28_42 + x_28_43 + x_28_45
   + x_28_48 + x_28_49 = 0
 c_2_29: - 2 y_29 + x_1_29 + x_9_29 + x_15_29 + x_18_29 + x_19_29 + x_21_29
   + x_22_29 + x_23_29 + x_24_29 + x_25_29 + x_27_29 + x_28_29 + x_29_30
   + x_29_32 + x_29_33 + x_29_35 + x_29_37 + x_29_42 + x_29_46 + x_29_47
   + x_29_48 = 0
 c_2_30: - 2 y_30 + x_0_30 + x_1_30 + x_2_30 + x_3_30 + x_5_30 + x_8_30
   + x_9_30 + x_10_30 + x_12_30 + x_16_30 + x_19_30 + x_21_30 + x_24_30
   + x_29_30 + x_30_32 + x_30_35 + x_30_37 + x_30_40 + x_30_45 + x_30_46
   + x_30_49 = 0
 c_2_31: - 2 y_31 + x_3_31 + x_4_31 + x_5_31 + x_6_31 + x_8_31 + x_11_31
   + x_12_31 + x_13_31 + x_15_31 + x_18_31 + x_25_31 + x_26_31 + x_31_33
   + x_31_38 + x_31_39 + x_31_41 + x_31_44 + x_31_45 + x_31_46 = 0
 c_2_32: - 2 y_32 + x_2_32 + x_4_32 + x_5_32 + x_6_32 + x_7_32 + x_8_32
   + x_10_32 + x_14_32 + x_16_32 + x_18_32 + x_19_32 + x_21_32 + x_23_32
   + x_25_32 + x_27_32 + x_28_32 + x_29_32 + x_30_32 + x_32_35 + x_32_39
   + x_32_40 + x_32_41 + x_32_43 + x_32_44 + x_32_45 + x_32_47 + x_32_49
   = 0
 c_2_33: - 2 y_33 + x_0_33 + x_2_33 + x_5_33 + x_6_33 + x_7_33 + x_8_33
   + x_9_33 + x_12_33 + x_15_33 + x_17_33 + x_19_33 + x_20_33 + x_23_33
   + x_24_33 + x_25_33 + x_26_33 + x_28_33 + x_29_33 + x_31_33 + x_33_34
   + x_33_35 + x_33_37 + x_33_38 + x_33_39 + x_33_42 + x_33_44 + x_33_45
   + x_33_46 + x_33_48 = 0
 c_2_34: - 2 y_34 + x_0_34 + x_7_34 + x_8_34 + x_9_34 + x_10_34 + x_11_34
   + x_12_34 + x_13_34 + x_15_34 + x_16_34 + x_17_34 + x_20_34 + x_21_34
   + x_22_34 + x_23_34 + x_25_34 + x_26_34 + x_27_34 + x_28_34 + x_33_34
   + x_34_35 + x_34_37 + x_34_39 + x_34_41 + x_34_43 + x_34_44 + x_34_49
   = 0
 c_2_35: - 2 y_35 + x_0_35 + x_1_35 + x_3_35 + x_4_35 + x_7_35 + x_11_35
   + x_12_35 + x_14_35 + x_15_35 + x_16_35 + x_17_35 + x_20_35 + x_21_35
   + x_22_35 + x_25_35 + x_26_35 + x_27_35 + x_29_35 + x_30_35 + x_32_35
   + x_33_35 + x_34_35 + x_35_37 + x_35_39 + x_35_42 + x_35_43 + x_35_44
   + x_35_45 + x_35_47 + x_35_48 = 0
 c_2_36: - 2 y_36 + x_5_36 + x_7_36 + x_9_36 + x_10_36 + x_12_36 + x_13_36
   + x_17_36 + x_18_36 + x_19_36 + x_20_36 + x_21_36 + x_22_36 + x_24_36
   + x_26_36 + x_27_36 + x_28_36 + x_36_39 + x_36_41 + x_36_43 + x_36_44
   + x_36_45 + x_36_47 + x_36_48 = 0
 c_2_37: - 2 y_37 + x_1_37 + x_2_37 + x_4_37 + x_5_37 + x_6_37 + x_7_37
   + x_8_37 + x_9_37 + x_10_37 + x_16_37 + x_18_37 + x_20_37 + x_23_37
   + x_24_37 + x_26_37 + x_27_37 + x_29_37 + x_30_37 + x_33_37 + x_34_37
   + x_35_37 + x_37_41 + x_37_42 + x_37_44 + x_37_46 + x_37_48 = 0
 c_2_38: - 2 y_38 + x_0_38 + x_3_38 + x_5_38 + x_6_38 + x_9_38 + x_10_38
   + x_13_38 + x_14_38 + x_17_38 + x_18_38 + x_20_38 + x_21_38 + x_22_38
   + x_23_38 + x_31_38 + x_33_38 + x_38_39 + x_38_42 + x_38_45 + x_38_46
   + x_38_47 + x_38_48 = 0
 c_2_39: - 2 y_39 + x_3_39 + x_4_39 + x_6_39 + x_8_39 + x_10_39 + x_14_39
   + x_15_39 + x_16_39 + x_19_39 + x_22_39 + x_24_39 + x_31_39 + x_32_39
   + x_33_39 + x_34_39 + x_35_39 + x_36_39 + x_38_39 + x_39_40 + x_39_43
   + x_39_49 = 0
 c_2_40: - 2 y_40 + x_2_40 + x_3_40 + x_4_40 + x_7_40 + x_8_40 + x_11_40
   + x_12_40 + x_13_40 + x_16_40 + x_21_40 + x_22_40 + x_23_40 + x_24_40
   + x_26_40 + x_27_40 + x_30_40 + x_32_40 + x_39_40 + x_40_41 + x_40_46
   + x_40_47 + x_40_49 = 0
 c_2_41: - 2 y_41 + x_0_41 + x_1_41 + x_2_41 + x_3_41 + x_5_41 + x_6_41
   + x_9_41 + x_12_41 + x_13_41 + x_20_41 + x_21_41 + x_22_41 + x_25_41
   + x_27_41 + x_31_41 + x_32_41 + x_34_41 + x_36_41 + x_37_41 + x_40_41
   + x_41_49 = 0
 c_2_42: - 2 y_42 + x_2_42 + x_3_42 + x_6_42 + x_9_42 + x_12_42 + x_14_42
   + x_16_42 + x_20_42 + x_24_42 + x_28_42 + x_29_42 + x_33_42 + x_35_42
   + x_37_42 + x_38_42 + x_42_43 + x_42_45 + x_42_46 + x_42_47 + x_42_48
   = 0
 c_2_43: - 2 y_43 + x_0_43 + x_2_43 + x_4_43 + x_6_43 + x_10_43 + x_11_43
   + x_13_43 + x_16_43 + x_18_43 + x_19_43 + x_20_43 + x_21_43 + x_22_43
   + x_24_43 + x_26_43 + x_28_43 + x_32_43 + x_34_43 + x_35_43 + x_36_43
   + x_39_43 + x_42_43 + x_43_44 + x_43_45 + x_43_48 = 0
 c_2_44: - 2 y_44 + x_0_44 + x_1_44 + x_3_44 + x_5_44 + x_7_44 + x_8_44
   + x_9_44 + x_12_44 + x_13_44 + x_18_44 + x_25_44 + x_26_44 + x_31_44
   + x_32_44 + x_33_44 + x_34_44 + x_35_44 + x_36_44 + x_37_44 + x_43_44
   + x_44_47 + x_44_48 = 0
 c_2_45: - 2 y_45 + x_0_45 + x_1_45 + x_3_45 + x_5_45 + x_8_45 + x_11_45
   + x_12_45 + x_13_45 + x_16_45 + x_17_45 + x_18_45 + x_19_45 + x_23_45
   + x_28_45 + x_30_45 + x_31_45 + x_32_45 + x_33_45 + x_35_45 + x_36_45
   + x_38_45 + x_42_45 + x_43_45 + x_45_46 + x_45_49 = 0
 c_2_46: - 2 y_46 + x_1_46 + x_2_46 + x_7_46 + x_11_46 + x_12_46 + x_14_46
   + x_15_46 + x_17_46 + x_18_46 + x_19_46 + x_22_46 + x_23_46 + x_24_46
   + x_29_46 + x_30_46 + x_31_46 + x_33_46 + x_37_46 + x_38_46 + x_40_46
   + x_42_46 + x_45_46 + x_46_48 + x_46_49 = 0
 c_2_47: - 2 y_47 + x_1_47 + x_4_47 + x_7_47 + x_10_47 + x_11_47 + x_12_47
   + x_16_47 + x_18_47 + x_22_47 + x_25_47 + x_26_47 + x_27_47 + x_29_47
   + x_32_47 + x_35_47 + x_36_47 + x_38_47 + x_40_47 + x_42_47 + x_44_47
   + x_47_49 = 0
 c_2_48: - 2 y_48 + x_1_48 + x_2_48 + x_7_48 + x_8_48 + x_9_48 + x_10_48
   + x_11_48 + x_12_48 + x_13_48 + x_14_48 + x_15_48 + x_16_48 + x_21_48
   + x_22_48 + x_23_48 + x_24_48 + x_26_48 + x_27_48 + x_28_48 + x_29_48
   + x_33_48 + x_35_48 + x_36_48 + x_37_48 + x_38_48 + x_42_48 + x_43_48
   + x_44_48 + x_46_48 + x_48_49 = 0
 c_2_49: - 2 y_49 + x_0_49 + x_1_49 + x_3_49 + x_5_49 + x_7_49 + x_8_49
   + x_9_49 + x_10_49 + x_11_49 + x_12_49 + x_14_49 + x_18_49 + x_20_49
   + x_21_49 + x_22_49 + x_23_49 + x_24_49 + x_25_49 + x_26_49 + x_27_49
   + x_28_49 + x_30_49 + x_32_49 + x_34_49 + x_39_49 + x_40_49 + x_41_49
   + x_45_49 + x_46_49 + x_47_49 + x_48_49 = 0
Bounds
 Constant = 1
Binaries
 y_0 y_1 y_2 y_3 y_4 y_5 y_6 y_7 y_8 y_9 y_10 y_11 y_12 y_13 y_14 y_15 y_16
 y_17 y_18 y_19 y_20 y_21 y_22 y_23 y_24 y_25 y_26 y_27 y_28 y_29 y_30 y_31
 y_32 y_33 y_34 y_35 y_36 y_37 y_38 y_39 y_40 y_41 y_42 y_43 y_44 y_45 y_46
 y_47 y_48 y_49 x_0_4 x_0_5 x_0_6 x_0_10 x_0_11 x_0_12 x_0_13 x_0_15 x_0_16
 x_0_21 x_0_25 x_0_30 x_0_33 x_0_34 x_0_35 x_0_38 x_0_41 x_0_43 x_0_44
 x_0_45 x_0_49 x_1_7 x_1_9 x_1_10 x_1_12 x_1_13 x_1_14 x_1_15 x_1_17 x_1_18
 x_1_19 x_1_20 x_1_23 x_1_26 x_1_27 x_1_29 x_1_30 x_1_35 x_1_37 x_1_41
 x_1_44 x_1_45 x_1_46 x_1_47 x_1_48 x_1_49 x_2_4 x_2_5 x_2_6 x_2_7 x_2_9
 x_2_10 x_2_13 x_2_16 x_2_18 x_2_19 x_2_20 x_2_21 x_2_22 x_2_23 x_2_25
 x_2_27 x_2_30 x_2_32 x_2_33 x_2_37 x_2_40 x_2_41 x_2_42 x_2_43 x_2_46
 x_2_48 x_3_4 x_3_6 x_3_7 x_3_11 x_3_12 x_3_13 x_3_14 x_3_15 x_3_17 x_3_19
 x_3_20 x_3_23 x_3_25 x_3_26 x_3_30 x_3_31 x_3_35 x_3_38 x_3_39 x_3_40
 x_3_41 x_3_42 x_3_44 x_3_45 x_3_49 x_4_7 x_4_8 x_4_12 x_4_16 x_4_18 x_4_22
 x_4_23 x_4_24 x_4_25 x_4_31 x_4_32 x_4_35 x_4_37 x_4_39 x_4_40 x_4_43
 x_4_47 x_5_6 x_5_7 x_5_8 x_5_10 x_5_13 x_5_14 x_5_17 x_5_22 x_5_23 x_5_26
 x_5_27 x_5_30 x_5_31 x_5_32 x_5_33 x_5_36 x_5_37 x_5_38 x_5_41 x_5_44
 x_5_45 x_5_49 x_6_8 x_6_11 x_6_12 x_6_13 x_6_14 x_6_15 x_6_16 x_6_18
 x_6_19 x_6_20 x_6_25 x_6_31 x_6_32 x_6_33 x_6_37 x_6_38 x_6_39 x_6_41
 x_6_42 x_6_43 x_7_9 x_7_10 x_7_11 x_7_15 x_7_16 x_7_20 x_7_25 x_7_32
 x_7_33 x_7_34 x_7_35 x_7_36 x_7_37 x_7_40 x_7_44 x_7_46 x_7_47 x_7_48
 x_7_49 x_8_10 x_8_11 x_8_12 x_8_13 x_8_14 x_8_15 x_8_16 x_8_17 x_8_18
 x_8_19 x_8_21 x_8_22 x_8_25 x_8_27 x_8_30 x_8_31 x_8_32 x_8_33 x_8_34
 x_8_37 x_8_39 x_8_40 x_8_44 x_8_45 x_8_48 x_8_49 x_9_10 x_9_11 x_9_12
 x_9_14 x_9_15 x_9_16 x_9_20 x_9_21 x_9_28 x_9_29 x_9_30 x_9_33 x_9_34
 x_9_36 x_9_37 x_9_38 x_9_41 x_9_42 x_9_44 x_9_48 x_9_49 x_10_12 x_10_15
 x_10_16 x_10_18 x_10_19 x_10_22 x_10_24 x_10_25 x_10_27 x_10_28 x_10_30
 x_10_32 x_10_34 x_10_36 x_10_37 x_10_38 x_10_39 x_10_43 x_10_47 x_10_48
 x_10_49 x_11_15 x_11_18 x_11_19 x_11_23 x_11_25 x_11_26 x_11_27 x_11_28
 x_11_31 x_11_34 x_11_35 x_11_40 x_11_43 x_11_45 x_11_46 x_11_47 x_11_48
 x_11_49 x_12_13 x_12_14 x_12_16 x_12_19 x_12_23 x_12_25 x_12_26 x_12_28
 x_12_30 x_12_31 x_12_33 x_12_34 x_12_35 x_12_36 x_12_40 x_12_41 x_12_42
 x_12_44 x_12_45 x_12_46 x_12_47 x_12_48 x_12_49 x_13_14 x_13_18 x_13_20
 x_13_21 x_13_23 x_13_24 x_13_25 x_13_26 x_13_27 x_13_31 x_13_34 x_13_36
 x_13_38 x_13_40 x_13_41 x_13_43 x_13_44 x_13_45 x_13_48 x_14_15 x_14_16
 x_14_17 x_14_18 x_14_20 x_14_23 x_14_24 x_14_32 x_14_35 x_14_38 x_14_39
 x_14_42 x_14_46 x_14_48 x_14_49 x_15_16 x_15_17 x_15_25 x_15_27 x_15_28
 x_15_29 x_15_31 x_15_33 x_15_34 x_15_35 x_15_39 x_15_46 x_15_48 x_16_18
 x_16_20 x_16_22 x_16_25 x_16_26 x_16_28 x_16_30 x_16_32 x_16_34 x_16_35
 x_16_37 x_16_39 x_16_40 x_16_42 x_16_43 x_16_45 x_16_47 x_16_48 x_17_18
 x_17_19 x_17_20 x_17_21 x_17_22 x_17_25 x_17_27 x_17_33 x_17_34 x_17_35
 x_17_36 x_17_38 x_17_45 x_17_46 x_18_19 x_18_21 x_18_22 x_18_23 x_18_25
 x_18_27 x_18_29 x_18_31 x_18_32 x_18_36 x_18_37 x_18_38 x_18_43 x_18_44
 x_18_45 x_18_46 x_18_47 x_18_49 x_19_21 x_19_27 x_19_28 x_19_29 x_19_30
 x_19_32 x_19_33 x_19_36 x_19_39 x_19_43 x_19_45 x_19_46 x_20_21 x_20_22
 x_20_25 x_20_26 x_20_33 x_20_34 x_20_35 x_20_36 x_20_37 x_20_38 x_20_41
 x_20_42 x_20_43 x_20_49 x_21_22 x_21_23 x_21_25 x_21_26 x_21_27 x_21_29
 x_21_30 x_21_32 x_21_34 x_21_35 x_21_36 x_21_38 x_21_40 x_21_41 x_21_43
 x_21_48 x_21_49 x_22_23 x_22_25 x_22_26 x_22_28 x_22_29 x_22_34 x_22_35
 x_22_36 x_22_38 x_22_39 x_22_40 x_22_41 x_22_43 x_22_46 x_22_47 x_22_48
 x_22_49 x_23_28 x_23_29 x_23_32 x_23_33 x_23_34 x_23_37 x_23_38 x_23_40
 x_23_45 x_23_46 x_23_48 x_23_49 x_24_25 x_24_26 x_24_29 x_24_30 x_24_33
 x_24_36 x_24_37 x_24_39 x_24_40 x_24_42 x_24_43 x_24_46 x_24_48 x_24_49
 x_25_26 x_25_27 x_25_28 x_25_29 x_25_31 x_25_32 x_25_33 x_25_34 x_25_35
 x_25_41 x_25_44 x_25_47 x_25_49 x_26_31 x_26_33 x_26_34 x_26_35 x_26_36
 x_26_37 x_26_40 x_26_43 x_26_44 x_26_47 x_26_48 x_26_49 x_27_28 x_27_29
 x_27_32 x_27_34 x_27_35 x_27_36 x_27_37 x_27_40 x_27_41 x_27_47 x_27_48
 x_27_49 x_28_29 x_28_32 x_28_33 x_28_34 x_28_36 x_28_42 x_28_43 x_28_45
 x_28_48 x_28_49 x_29_30 x_29_32 x_29_33 x_29_35 x_29_37 x_29_42 x_29_46
 x_29_47 x_29_48 x_30_32 x_30_35 x_30_37 x_30_40 x_30_45 x_30_46 x_30_49
 x_31_33 x_31_38 x_31_39 x_31_41 x_31_44 x_31_45 x_31_46 x_32_35 x_32_39
 x_32_40 x_32_41 x_32_43 x_32_44 x_32_45 x_32_47 x_32_49 x_33_34 x_33_35
 x_33_37 x_33_38 x_33_39 x_33_42 x_33_44 x_33_45 x_33_46 x_33_48 x_34_35
 x_34_37 x_34_39 x_34_41 x_34_43 x_34_44 x_34_49 x_35_37 x_35_39 x_35_42
 x_35_43 x_35_44 x_35_45 x_35_47 x_35_48 x_36_39 x_36_41 x_36_43 x_36_44
 x_36_45 x_36_47 x_36_48 x_37_41 x_37_42 x_37_44 x_37_46 x_37_48 x_38_39
 x_38_42 x_38_45 x_38_46 x_38_47 x_38_48 x_39_40 x_39_43 x_39_49 x_40_41
 x_40_46 x_40_47 x_40_49 x_41_49 x_42_43 x_42_45 x_42_46 x_42_47 x_42_48
 x_43_44 x_43_45 x_43_48 x_44_47 x_44_48 x_45_46 x_45_49 x_46_48 x_46_49
 x_47_49 x_48_49
End
